p edge 96 349
e 1 2
e 1 5
e 1 6
e 1 7
e 1 8
e 1 12
e 1 13
e 1 14
e 1 15
e 1 16
e 1 17
e 1 20
e 1 32
e 1 37
e 1 39
e 1 48
e 1 50
e 1 52
e 1 62
e 2 3
e 2 4
e 2 6
e 2 7
e 2 8
e 2 13
e 2 14
e 2 16
e 2 17
e 2 20
e 2 22
e 2 24
e 2 26
e 2 27
e 2 29
e 2 35
e 2 39
e 2 55
e 2 68
e 2 84
e 2 85
e 3 4
e 3 5
e 3 7
e 3 8
e 3 11
e 3 12
e 3 13
e 3 17
e 3 18
e 3 19
e 3 21
e 3 22
e 3 57
e 3 61
e 3 83
e 3 86
e 3 90
e 4 6
e 4 7
e 4 8
e 4 13
e 4 17
e 4 18
e 4 29
e 4 31
e 4 34
e 4 44
e 4 53
e 4 61
e 4 66
e 5 10
e 5 11
e 5 12
e 5 18
e 5 19
e 5 21
e 5 22
e 5 29
e 5 48
e 5 57
e 5 74
e 5 90
e 6 7
e 6 11
e 6 14
e 6 17
e 6 24
e 6 29
e 6 32
e 6 34
e 6 35
e 6 52
e 6 57
e 7 10
e 7 14
e 7 16
e 7 17
e 7 31
e 7 34
e 7 39
e 7 61
e 7 86
e 7 95
e 8 11
e 8 12
e 8 13
e 8 20
e 8 27
e 8 37
e 8 62
e 9 23
e 9 28
e 9 37
e 9 42
e 9 44
e 9 47
e 9 74
e 9 81
e 10 16
e 10 23
e 10 40
e 10 47
e 10 48
e 10 53
e 10 56
e 10 61
e 10 74
e 10 79
e 10 95
e 11 12
e 11 25
e 11 27
e 11 32
e 11 91
e 12 13
e 12 18
e 12 19
e 12 20
e 12 21
e 12 37
e 12 57
e 12 82
e 12 83
e 13 20
e 13 37
e 13 71
e 13 72
e 14 15
e 14 16
e 14 17
e 14 24
e 14 32
e 14 39
e 14 50
e 14 52
e 15 18
e 15 22
e 15 35
e 15 41
e 15 50
e 16 17
e 16 21
e 16 23
e 16 26
e 16 29
e 16 35
e 16 39
e 16 43
e 16 54
e 16 58
e 16 59
e 16 67
e 17 34
e 17 39
e 17 61
e 17 86
e 18 19
e 18 22
e 18 35
e 18 38
e 18 51
e 18 75
e 18 87
e 19 24
e 19 27
e 19 82
e 19 89
e 19 93
e 20 37
e 20 63
e 20 71
e 20 72
e 21 22
e 21 32
e 21 49
e 21 54
e 21 67
e 22 26
e 22 35
e 23 42
e 23 44
e 23 45
e 24 25
e 24 27
e 24 40
e 24 49
e 24 81
e 25 26
e 25 27
e 25 30
e 25 36
e 25 38
e 25 64
e 25 71
e 25 72
e 25 77
e 26 29
e 26 30
e 26 34
e 26 35
e 26 36
e 26 38
e 26 64
e 26 73
e 26 77
e 27 68
e 28 36
e 28 37
e 28 45
e 28 51
e 28 69
e 29 35
e 29 53
e 29 90
e 30 36
e 30 38
e 30 64
e 30 71
e 30 72
e 30 77
e 31 55
e 31 73
e 32 50
e 32 52
e 33 42
e 33 46
e 33 58
e 33 59
e 33 69
e 33 70
e 34 73
e 34 96
e 35 57
e 36 38
e 36 41
e 36 45
e 36 60
e 36 64
e 36 69
e 36 70
e 36 77
e 36 94
e 37 39
e 37 56
e 37 86
e 38 64
e 38 75
e 38 77
e 38 87
e 40 49
e 40 92
e 41 45
e 41 63
e 41 64
e 41 70
e 41 71
e 41 72
e 42 44
e 43 46
e 43 58
e 43 59
e 43 65
e 44 61
e 44 66
e 45 60
e 45 69
e 45 70
e 45 94
e 46 69
e 46 70
e 47 56
e 47 74
e 47 79
e 47 81
e 48 49
e 48 57
e 48 74
e 49 54
e 49 67
e 49 81
e 50 52
e 51 60
e 51 69
e 51 75
e 52 55
e 53 84
e 53 85
e 54 65
e 54 67
e 55 68
e 55 84
e 55 85
e 56 79
e 56 83
e 56 86
e 58 59
e 58 65
e 58 66
e 59 65
e 59 66
e 60 70
e 60 75
e 60 77
e 60 94
e 61 66
e 61 86
e 61 95
e 62 80
e 62 88
e 63 73
e 64 71
e 64 72
e 64 77
e 65 66
e 68 84
e 68 85
e 68 89
e 68 93
e 71 72
e 74 81
e 75 87
e 76 78
e 78 91
e 79 83
e 80 88
e 80 89
e 81 92
e 84 85
e 89 93
